n = 100;
C = 491;
w = [342,998,259,417,541,331,90,802,401,131,783,875,112,354,747,505,402,507,89,402,27,726,483,316,586,370,306,406,961,12,272,55,214,81,849,550,393,384,761,529,375,531,399,314,510,383,506,999,202,426,763,753,576,326,756,895,802,963,207,716,722,881,642,246,266,229,505,705,738,668,852,51,723,846,75,73,597,869,320,362,244,559,684,450,360,103,84,458,148,835,861,598,967,842,798,743,106,884,245,26];
p = [342,998,259,417,541,331,90,802,401,131,783,875,112,354,747,505,402,507,89,402,27,726,483,316,586,370,306,406,961,12,272,55,214,81,849,550,393,384,761,529,375,531,399,314,510,383,506,999,202,426,763,753,576,326,756,895,802,963,207,716,722,881,642,246,266,229,505,705,738,668,852,51,723,846,75,73,597,869,320,362,244,559,684,450,360,103,84,458,148,835,861,598,967,842,798,743,106,884,245,26];
